data;

set A := 612483 118807 370126 994577 927808 770516 497686 435574 96624 419490 853750 41156 626005 6302 178983 440632 233713 451636 447622 893055 489224 466852 590670 18555 983970 551294 642913 208251 111941 826406 778368 984198 869950 237328 637197 911249 300185 315908 905616 159427 699364 101978 896175 578744 18800 630847 996979 585786 437071 431278 555721 193033 582166 1784 12606 540628 184796 118140 822530 990142 41337 188078 699878 855065 595144 714068 265501 840301 549988 826819 847486 228210 275502 689894 316415 995217;
param T := 19000000;

end;
